Optimize a model with 2 rows, 5 columns and 7 nonzeros
Coefficient statistics:
  Matrix range     [1e+00, 3e+00]
  Objective range  [1e+00, 1e+00]
  Bounds range     [0e+00, 0e+00]
  RHS range        [2e+00, 4e+00]
Presolve removed 0 rows and 2 columns
Presolve time: 0.00s
Presolved: 2 rows, 3 columns, 5 nonzeros

Iteration    Objective       Primal Inf.    Dual Inf.      Time
       0    0.0000000e+00   0.000000e+00   0.000000e+00      0s
       0    0.0000000e+00   0.000000e+00   0.000000e+00      0s

Solved in 0 iterations and 0.00 seconds
Optimal objective  0.000000000e+00
A = [(1, 3, 1), (0, 2, 1)]
b = (4, 2)
c = (1, 2, 0)
x[0] = 1
x[1] = 1
x[2] = 0
x[3] = 0
x[4] = 0
